FLOW,10,10,1
1,71,3,54,4,98,0,70,2,20,9,85,6,94,7,89,8,90,5,87
3,34,4,14,2,79,0,39,1,70,6,2,5,11,7,22,8,12,9,82
4,1,1,80,0,40,3,21,2,93,5,30,9,100,6,66,8,47,7,100
2,8,4,12,0,85,3,96,1,42,5,93,6,52,9,33,8,1,7,47
3,30,1,92,0,90,2,7,4,29,7,79,5,41,9,3,8,34,6,89
4,69,3,16,1,62,2,83,0,72,6,19,9,5,8,32,7,5,5,96
1,68,3,3,2,34,4,69,0,18,7,48,5,48,8,22,6,96,9,38
0,80,1,66,4,79,3,67,2,7,5,52,6,49,9,91,7,59,8,88
0,19,2,61,1,88,4,44,3,75,8,70,7,23,6,30,9,50,5,98
3,28,0,70,4,20,1,75,2,67,6,64,5,34,9,3,7,85,8,10
